VACCINE = Vaccine(1..2);
m = 24;
age = [AGED, ANCIENT, CHILD, SENIOR, BABY, AGED, CHILD, CHILD, BABY, CHILD, ANCIENT, AGED, ADULT, YOUTH, AGED, ADULT, ANCIENT, YOUTH, CHILD, BABY, YOUTH, SENIOR, YOUTH, YOUTH];
gender = [MALE, MALE, MALE, OTHER, OTHER, OTHER, OTHER, FEMALE, FEMALE, FEMALE, FEMALE, MALE, FEMALE, FEMALE, OTHER, FEMALE, OTHER, OTHER, MALE, FEMALE, MALE, OTHER, OTHER, MALE];
health = [COMPROMISED, GOOD, COMPROMISED, COMPROMISED, POOR, POOR, POOR, COMPROMISED, POOR, COMPROMISED, POOR, COMPROMISED, GOOD, GOOD, GOOD, GOOD, POOR, GOOD, COMPROMISED, POOR, GOOD, GOOD, POOR, COMPROMISED];
exposure = [LOW, EXTREME, LOW, HIGH, HIGH, AVERAGE, HIGH, AVERAGE, HIGH, LOW, LOW, AVERAGE, EXTREME, AVERAGE, EXTREME, EXTREME, AVERAGE, LOW, LOW, EXTREME, EXTREME, HIGH, HIGH, LOW];
size = [14, 9, 14, 13, 13, 14, 13, 14, 11, 12, 10, 13, 10, 9, 10, 9, 13, 9, 14, 13, 9, 10, 9, 10];
minsize = 9;
age_group_min = [1, 0, 0, 1, 0, 0, 0];
age_group_max = [24, 22, 20, 10, 22, 17, 11];
max_people_diff = 64;
max_share_vaccines = 2;
health_information = {3, 18, 24};
exposure_information = {11, 13, 14, 21};